p cnf 84 279
-1 2 -3 0
1 -2 -3 0
-1 -2 3 0
1 2 3 0
6 4 0
6 -5 0
-4 5 -6 0
-7 3 0
-7 6 0
-3 -6 7 0
-5 2 -8 0
5 -2 -8 0
-5 -2 8 0
5 2 8 0
-9 2 0
-9 8 0
-2 -8 9 0
-10 -7 0
-10 -9 0
7 9 10 0
-10 6 -11 0
10 -6 -11 0
-10 -6 11 0
10 6 11 0
-12 -9 -13 0
12 9 -13 0
-12 9 13 0
12 -9 13 0
-13 14 -15 0
13 -14 -15 0
-13 -14 15 0
13 14 15 0
16 4 0
16 15 0
-4 -15 -16 0
17 11 0
17 16 0
-11 -16 -17 0
20 -18 0
20 19 0
18 -19 -20 0
-5 21 -22 0
5 -21 -22 0
-5 -21 22 0
5 21 22 0
-4 -22 -23 0
4 22 -23 0
-4 22 23 0
4 -22 23 0
24 23 0
24 -1 0
-23 1 -24 0
26 25 0
26 -14 0
-25 14 -26 0
27 -24 0
27 -26 0
24 26 -27 0
-19 -14 -28 0
19 14 -28 0
-19 14 28 0
19 -14 28 0
29 27 0
29 28 0
-27 -28 -29 0
4 -22 -30 0
-4 22 -30 0
4 22 30 0
-4 -22 30 0
-29 -30 -31 0
29 30 -31 0
-29 30 31 0
29 -30 31 0
-20 31 -32 0
20 -31 -32 0
-20 -31 32 0
20 31 32 0
-33 -8 0
-33 4 0
8 -4 33 0
35 -4 0
35 34 0
4 -34 -35 0
-6 -35 -36 0
6 35 -36 0
-6 35 36 0
6 -35 36 0
37 -8 0
37 3 0
8 -3 -37 0
37 -38 -39 0
-37 38 -39 0
37 38 39 0
-37 -38 39 0
-40 36 0
-40 -39 0
-36 39 40 0
-40 -41 -42 0
40 41 -42 0
-40 41 42 0
40 -41 42 0
-33 -42 -43 0
33 42 -43 0
-33 42 43 0
33 -42 43 0
35 -44 0
-35 -44 0
6 44 -45 0
-6 -44 -45 0
6 -44 45 0
-6 44 45 0
-46 12 0
-46 -45 0
-12 45 46 0
47 -46 0
47 -4 0
46 4 -47 0
-48 25 0
-48 19 0
-25 -19 48 0
-49 48 0
-49 -40 0
-48 40 49 0
50 47 0
50 -49 0
-47 49 -50 0
51 -13 0
51 9 0
13 -9 -51 0
3 -37 -52 0
-3 37 -52 0
3 37 52 0
-3 -37 52 0
6 -12 -53 0
-6 12 -53 0
6 12 53 0
-6 -12 53 0
54 14 0
54 53 0
-14 -53 -54 0
-55 52 0
-55 54 0
-52 -54 55 0
-51 55 -56 0
51 -55 -56 0
-51 -55 56 0
51 55 56 0
57 -50 0
57 -56 0
50 56 -57 0
43 57 -58 0
-43 -57 -58 0
43 -57 58 0
-43 57 58 0
1 -53 -59 0
-1 53 -59 0
1 53 59 0
-1 -53 59 0
60 7 0
60 10 0
-7 -10 -60 0
-61 18 0
-61 -35 0
-18 35 61 0
62 61 0
62 -46 0
-61 46 -62 0
63 60 0
63 62 0
-60 -62 -63 0
64 59 0
64 63 0
-59 -63 -64 0
65 -58 0
65 64 0
58 -64 -65 0
-66 -32 0
-66 -65 0
32 65 66 0
67 -17 0
67 66 0
17 -66 -67 0
69 -8 0
69 -52 0
8 52 -69 0
-68 -69 -70 0
68 69 -70 0
-68 69 70 0
68 -69 70 0
71 -39 0
71 10 0
39 -10 -71 0
72 70 0
72 -71 0
-70 71 -72 0
-48 4 -73 0
48 -4 -73 0
-48 -4 73 0
48 4 73 0
74 -6 0
74 38 0
6 -38 -74 0
-75 74 0
-75 -36 0
-74 36 75 0
-76 73 0
-76 -75 0
-73 75 76 0
77 72 0
77 76 0
-72 -76 -77 0
-78 -34 0
-78 1 0
34 -1 78 0
79 78 0
79 12 0
-78 -12 -79 0
-80 -21 0
-80 49 0
21 -49 80 0
-81 -79 0
-81 80 0
79 -80 81 0
-82 -81 0
-82 -36 0
81 36 82 0
83 -77 0
83 -82 0
77 82 -83 0
84 -67 0
84 -83 0
67 83 -84 0
39 -58 -16 0
-56 67 -28 38 -49 -62 0
-59 -17 55 -61 -68 0
-80 -81 1 45 0
-71 -2 26 0
-32 23 -69 -25 0
-12 -80 -72 0
-37 28 0
50 37 60 57 58 20 0
-37 70 0
-20 -44 -51 -36 0
-77 67 80 26 54 0
-44 -35 21 25 0
-42 -1 -49 4 0
-19 -21 2 0
-26 -41 -43 31 -78 0
-82 -35 -60 74 71 0
-47 64 -56 38 -75 68 0
-70 40 -11 -32 0
38 -35 53 -8 0
-63 -26 -36 -82 0
63 -40 0
-79 29 25 0
29 82 67 0
34 -81 35 54 49 0
-27 14 -7 9 0
18 -9 48 0
-46 -53 0
-36 -34 0
30 -44 0
-28 -68 1 -34 25 45 0
75 -67 -76 5 0
-76 -59 -79 -16 0
79 14 0
-19 -44 -68 -60 -69 0
-3 31 -24 -61 0
7 53 0
-4 23 -20 77 -35 0
44 24 39 -48 0
-71 30 -11 76 0
-71 -67 81 -3 47 21 0
-75 -73 0
-36 9 24 41 -49 57 0
-78 82 -4 -68 0
28 -8 57 0
-64 66 22 69 -27 63 0
84 0
